10
1 0 77
2 0 43
2 1 97
3 0 69
3 1 11
3 2 49
4 0 3
4 1 4
4 2 25
4 3 83
5 0 25
5 1 87
5 2 12
5 3 38
5 4 92
6 0 5
6 1 15
6 2 76
6 3 61
6 4 23
6 5 6
7 0 46
7 1 94
7 2 46
7 3 4
7 4 2
7 5 69
7 6 36
8 0 81
8 1 99
8 2 24
8 3 66
8 4 67
8 5 87
8 6 19
8 7 64
9 0 27
9 1 46
9 2 50
9 3 82
9 4 94
9 5 32
9 6 49
9 7 92
9 8 63
